
Gurobi 13.0.2 (win64) logging started Fri Jul 24 06:06:37 2026

Set parameter LogFile to value "E:\codes\ExactEBRP\results\gf_c0_mechanism_transfer_c5_round30\runs\stage1__high_imbalance_seed3202__c0_diag__300s\external\native_logs\L2.0.0_attempt_0.gurobi.log"
Gurobi Optimizer version 13.0.2 build v13.0.2rc1 (win64 - Windows 10.0 (19045.2))

CPU model: 12th Gen Intel(R) Core(TM) i7-12700KF, instruction set [SSE2|AVX|AVX2]
Thread count: 12 physical cores, 20 logical processors, using up to 1 threads

Non-default parameters:
TimeLimit  30
MIPGap  0
MIPGapAbs  0
LogToConsole  0
Threads  1

Optimize a model with 11895 rows, 3372 columns and 67322 nonzeros (Min)
Model fingerprint: 0x06a46df4
Model has 21 linear objective coefficients
Variable types: 1683 continuous, 1689 integer (1489 binary)
Coefficient statistics:
  Matrix range     [1e-02, 2e+04]
  Objective range  [1e-02, 1e+00]
  Bounds range     [5e-01, 2e+03]
  RHS range        [5e-01, 5e+04]

Presolve removed 2397 rows and 92 columns
Presolve time: 0.19s
Presolved: 9498 rows, 3280 columns, 58054 nonzeros
Variable types: 1628 continuous, 1652 integer (1467 binary)

Root relaxation: objective 1.593716e+00, 3820 iterations, 0.23 seconds (0.48 work units)

    Nodes    |    Current Node    |     Objective Bounds      |     Work
 Expl Unexpl |  Obj  Depth IntInf | Incumbent    BestBd   Gap | It/Node Time

     0     0    1.59372    0  251          -    1.59372      -     -    0s
     0     0    1.63167    0  281          -    1.63167      -     -    0s
     0     0    1.66474    0  324          -    1.66474      -     -    1s
     0     0    1.66521    0  315          -    1.66521      -     -    1s
     0     0    1.67565    0  341          -    1.67565      -     -    2s
     0     0    1.67676    0  331          -    1.67676      -     -    2s
     0     0    1.68232    0  326          -    1.68232      -     -    2s
     0     0    1.68409    0  346          -    1.68409      -     -    3s
     0     0    1.68685    0  332          -    1.68685      -     -    3s
     0     0    1.68728    0  340          -    1.68728      -     -    4s
     0     0    1.68888    0  326          -    1.68888      -     -    4s
     0     0    1.68896    0  328          -    1.68896      -     -    4s
     0     0    1.69036    0  330          -    1.69036      -     -    4s
     0     0    1.69058    0  356          -    1.69058      -     -    5s
     0     0    1.69139    0  319          -    1.69139      -     -    5s
     0     0    1.69142    0  348          -    1.69142      -     -    5s
     0     0    1.69408    0  247          -    1.69408      -     -    6s
     0     0    1.69429    0  281          -    1.69429      -     -    6s
     0     0    1.69434    0  295          -    1.69434      -     -    6s
     0     0    1.69441    0  300          -    1.69441      -     -    7s
     0     0    1.69447    0  308          -    1.69447      -     -    7s
     0     0    1.69449    0  304          -    1.69449      -     -    7s
     0     0    1.69456    0  314          -    1.69456      -     -    7s
     0     0    1.69460    0  366          -    1.69460      -     -    8s
     0     0    1.69486    0  373          -    1.69486      -     -    8s
     0     0    1.69498    0  387          -    1.69498      -     -    8s
     0     0    1.69519    0  365          -    1.69519      -     -    9s
     0     0    1.69522    0  354          -    1.69522      -     -    9s
     0     0    1.69546    0  355          -    1.69546      -     -   10s
     0     0    1.69552    0  361          -    1.69552      -     -   10s
     0     0    1.69576    0  289          -    1.69576      -     -   10s
     0     0    1.69579    0  269          -    1.69579      -     -   10s
     0     0    1.69604    0  337          -    1.69604      -     -   11s
     0     0    1.69605    0  316          -    1.69605      -     -   11s
     0     0    1.69609    0  313          -    1.69609      -     -   11s
     0     0    1.69611    0  296          -    1.69611      -     -   12s
     0     0    1.69613    0  334          -    1.69613      -     -   12s
     0     0    1.69613    0  333          -    1.69613      -     -   12s
     0     0    1.69613    0  329          -    1.69613      -     -   12s
     0     2    1.69613    0  329          -    1.69613      -     -   13s
     3     5    1.69744    3  306          -    1.69613      -  1744   15s
    41    41    1.71385   36  196          -    1.69613      -   927   20s
    63    63    1.71493   58  221          -    1.69613      -   747   25s

Cutting planes:
  Learned: 14
  Cover: 51
  Implied bound: 70
  Clique: 9
  MIR: 131
  StrongCG: 4
  Flow cover: 71
  GUB cover: 2
  Zero half: 2
  Network: 19
  RLT: 7
  Relax-and-lift: 64
  BQP: 1

Explored 206 nodes (140890 simplex iterations) in 30.00 seconds (64.55 work units)
Thread count was 1 (of 20 available processors)

Solution count 0

Time limit reached
Best objective -, best bound 1.696133103456e+00, gap -

User-callback calls 7563, time in user-callback 0.00 sec
